# Solution for model GasLib-40
# Objective value = 1.3572148290618534e+01
loadshed[innode_1] 0
loadshed[innode_2] 0
loadshed[innode_3] 0
loadshed[innode_4] 0
loadshed[innode_5] 0
loadshed[innode_6] 0
loadshed[innode_7] 0
loadshed[innode_8] 0
loadshed[source_1] -1.8780151681547474e-01
loadshed[source_2] -1.9937180321584425e-02
loadshed[source_3] 2.9358931667795052e-01
loadshed[sink_1] 0
loadshed[sink_2] 0
loadshed[sink_3] 0
loadshed[sink_4] 0
loadshed[sink_5] 0
loadshed[sink_6] 0
loadshed[sink_7] 0
loadshed[sink_8] 0
loadshed[sink_9] 0
loadshed[sink_10] 0
loadshed[sink_11] 0
loadshed[sink_12] 8.2988932222890388e-01
loadshed[sink_13] 0
loadshed[sink_14] 0
loadshed[sink_15] 0
loadshed[sink_16] 0
loadshed[sink_17] 0
loadshed[sink_18] 0
loadshed[sink_19] 0
loadshed[sink_20] 0
loadshed[sink_21] 0
loadshed[sink_22] 0
loadshed[sink_23] 0
loadshed[sink_24] 0
loadshed[sink_25] 0
loadshed[sink_26] 0
loadshed[sink_27] 0
loadshed[sink_28] 0
loadshed[sink_29] 0
flow[source_1,sink_3] 1.8777987173822419e+02
flow[innode_1,sink_16] 1.6354166666666970e+01
flow[innode_6,sink_13] 2.8025055150945377e+00
flow[sink_13,sink_14] -1.3551661151572130e+01
flow[sink_14,sink_10] -2.9905827818238834e+01
flow[sink_25,sink_26] 2.3174035170938146e+02
flow[sink_26,sink_9] 1.3058307110421194e+02
flow[sink_9,sink_18] 1.1422890443754527e+02
flow[sink_26,sink_4] 8.4803113938502861e+01
flow[sink_4,sink_20] 2.2784116210144816e+01
flow[sink_18,sink_6] 97.8747377708786
flow[sink_25,innode_8] -1.5507153840488786e+02
flow[sink_6,sink_7] 4.8812237770878255e+01
flow[sink_6,sink_22] 3.2708333333333641e+01
flow[sink_7,sink_24] 3.5490351709381471e+01
flow[sink_22,sink_1] 1.6354166666666970e+01
flow[sink_24,sink_21] 1.9136185042714803e+01
flow[sink_21,sink_12] 2.7820183760481347e+00
flow[sink_7,sink_5] -3.0322806051696460e+00
flow[sink_5,sink_17] -1.9386447271836118e+01
flow[sink_17,sink_4] -4.5664831061691359e+01
flow[sink_17,sink_8] 9.9242171231884413e+00
flow[sink_3,sink_23] 16.3541666666697
flow[sink_8,sink_20] -6.4299495434781875e+00
flow[sink_25,sink_20] 0
flow[sink_25,sink_15] -9.5825485486254763e+01
flow[sink_15,sink_29] -6.2566471660703371e+01
flow[sink_29,sink_28] 1.6354166666667879e+01
flow[sink_29,sink_2] 6.5967347158884763e+01
flow[sink_2,sink_15] 4.9613180492218021e+01
flow[sink_29,innode_7] -1.6124215215292270e+02
flow[innode_4,sink_19] 0
flow[sink_19,innode_3] 3.8536210650170233e+01
flow[innode_4,innode_5] 1.1167666115157260e+02
flow[sink_27,innode_5] -1.1167666115157260e+02
flow[sink_27,sink_19] 9.5322494484905931e+01
flow[sink_10,sink_11] 3.2708333333333641e+01
flow[sink_10,innode_2] -4.0432117168068942e+01
flow[sink_10,innode_3] -3.8536210650170233e+01
flow[innode_6,sink_25] -2.8025055150945377e+00
flow[sink_11,innode_1] 1.6354166666666970e+01
flow[sink_19,innode_2] 4.0432117168068942e+01
flow[source_3,innode_4] 1.1167666115157260e+02
flow[source_2,innode_7] 1.6124215215292270e+02
flow[sink_3,innode_8] 1.5507153840488786e+02
pressure[innode_1] 7.5674408127786535e+01
pressure[innode_2] 7.7963113817835549e+01
pressure[innode_3] 7.7877779743103218e+01
pressure[innode_4] 81.01325
pressure[innode_5] 8.0936432903731372e+01
pressure[innode_6] 7.4402803664321382e+01
pressure[innode_7] 81.01325
pressure[innode_8] 8.0385573623290213e+01
pressure[source_1] 81.01325
pressure[source_2] 81.01325
pressure[source_3] 81.01325
pressure[sink_1] 4.1417966212276063e+01
pressure[sink_2] 7.5029626743113312e+01
pressure[sink_3] 8.0385573623290213e+01
pressure[sink_4] 4.7299379400592969e+01
pressure[sink_5] 4.4110069940054977e+01
pressure[sink_6] 4.3519043822663434e+01
pressure[sink_7] 4.2848968148834281e+01
pressure[sink_8] 4.5179753638001081e+01
pressure[sink_9] 5.0265732955774851e+01
pressure[sink_10] 7.5826109435390080e+01
pressure[sink_11] 7.5674408127786535e+01
pressure[sink_12] 1.01325
pressure[sink_13] 7.4387353919758851e+01
pressure[sink_14] 7.4411605771735879e+01
pressure[sink_15] 7.4867650643375072e+01
pressure[sink_16] 7.4652758292968855e+01
pressure[sink_17] 4.5554220132541069e+01
pressure[sink_18] 4.6132590732536556e+01
pressure[sink_19] 7.7963113817835549e+01
pressure[sink_20] 45.6278306950583
pressure[sink_21] 2.0032443986567348e+00
pressure[sink_22] 4.2481735354631070e+01
pressure[sink_23] 8.0220855611630427e+01
pressure[sink_24] 2.2151598683684557e+00
pressure[sink_25] 7.4402803664321382e+01
pressure[sink_26] 5.8081466786991037e+01
pressure[sink_27] 8.0009722972454867e+01
pressure[sink_28] 7.6405371821697472e+01
pressure[sink_29] 7.6700654095314661e+01
interdiction[source_1,sink_3] 0
interdiction[innode_1,sink_16] 0
interdiction[innode_6,sink_13] 0
interdiction[sink_13,sink_14] 0
interdiction[sink_14,sink_10] 0
interdiction[sink_25,sink_26] 0
interdiction[sink_26,sink_9] 0
interdiction[sink_9,sink_18] 0
interdiction[sink_26,sink_4] 0
interdiction[sink_4,sink_20] 0
interdiction[sink_18,sink_6] 0
interdiction[sink_25,innode_8] 0
interdiction[sink_6,sink_7] 0
interdiction[sink_6,sink_22] 0
interdiction[sink_7,sink_24] 0
interdiction[sink_22,sink_1] 0
interdiction[sink_24,sink_21] 0
interdiction[sink_21,sink_12] 0
interdiction[sink_7,sink_5] 0
interdiction[sink_5,sink_17] 0
interdiction[sink_17,sink_4] 0
interdiction[sink_17,sink_8] 0
interdiction[sink_3,sink_23] 0
interdiction[sink_8,sink_20] 0
interdiction[sink_25,sink_20] 1
interdiction[sink_25,sink_15] 0
interdiction[sink_15,sink_29] 0
interdiction[sink_29,sink_28] 0
interdiction[sink_29,sink_2] 0
interdiction[sink_2,sink_15] 0
interdiction[sink_29,innode_7] 0
interdiction[innode_4,sink_19] 1
interdiction[sink_19,innode_3] 0
interdiction[innode_4,innode_5] 0
interdiction[sink_27,innode_5] 0
interdiction[sink_27,sink_19] 0
interdiction[sink_10,sink_11] 0
interdiction[sink_10,innode_2] 0
interdiction[sink_10,innode_3] 0
interdiction[innode_6,sink_25] 0
interdiction[sink_11,innode_1] 0
interdiction[sink_19,innode_2] 0
interdiction[source_3,innode_4] 0
interdiction[source_2,innode_7] 0
interdiction[sink_3,innode_8] 0
WCcheckFlow[source_1,sink_3] 39
WCcheckFlow[innode_1,sink_16] 1
WCcheckFlow[innode_6,sink_13] 13
WCcheckFlow[sink_13,sink_14] 12
WCcheckFlow[sink_14,sink_10] 11
WCcheckFlow[sink_25,sink_26] 15
WCcheckFlow[sink_26,sink_9] 12
WCcheckFlow[sink_9,sink_18] 11
WCcheckFlow[sink_26,sink_4] 2
WCcheckFlow[sink_4,sink_20] 1
WCcheckFlow[sink_18,sink_6] 10
WCcheckFlow[sink_25,innode_8] -36
WCcheckFlow[sink_6,sink_7] 7
WCcheckFlow[sink_6,sink_22] 2
WCcheckFlow[sink_7,sink_24] 3
WCcheckFlow[sink_22,sink_1] 1
WCcheckFlow[sink_24,sink_21] 2
WCcheckFlow[sink_21,sink_12] 1
WCcheckFlow[sink_7,sink_5] 3
WCcheckFlow[sink_5,sink_17] 2
WCcheckFlow[sink_17,sink_4] 0
WCcheckFlow[sink_17,sink_8] 1
WCcheckFlow[sink_3,sink_23] 1
WCcheckFlow[sink_8,sink_20] 0
WCcheckFlow[sink_25,sink_20] 0
WCcheckFlow[sink_25,sink_15] 6
WCcheckFlow[sink_15,sink_29] 5
WCcheckFlow[sink_29,sink_28] 1
WCcheckFlow[sink_29,sink_2] 1
WCcheckFlow[sink_2,sink_15] 0
WCcheckFlow[sink_29,innode_7] 2
WCcheckFlow[innode_4,sink_19] 0
WCcheckFlow[sink_19,innode_3] -5
WCcheckFlow[innode_4,innode_5] -2
WCcheckFlow[sink_27,innode_5] 3
WCcheckFlow[sink_27,sink_19] -4
WCcheckFlow[sink_10,sink_11] 3
WCcheckFlow[sink_10,innode_2] 1
WCcheckFlow[sink_10,innode_3] 6
WCcheckFlow[innode_6,sink_25] -14
WCcheckFlow[sink_11,innode_1] 2
WCcheckFlow[sink_19,innode_2] 0
WCcheckFlow[source_3,innode_4] -1
WCcheckFlow[source_2,innode_7] -1
WCcheckFlow[sink_3,innode_8] 37
